NAME: ./prFile/tspFile/tsp_file58.tsp
COMMENT: TSP file generated by Python
TYPE: TSP
DIMENSION: 40
EDGE_WEIGHT_TYPE: EUC_2D
NODE_COORD_SECTION
1 24 91
2 21 21
3 10 62
4 79 45
5 46 72
6 26 22
7 97 54
8 38 15
9 8 73
10 12 19
11 82 28
12 2 28
13 85 44
14 31 3
15 75 84
16 29 37
17 75 85
18 93 58
19 55 29
20 82 99
21 70 5
22 34 24
23 58 35
24 92 33
25 85 97
26 19 59
27 52 24
28 26 35
29 67 77
30 90 7
31 75 39
32 54 7
33 64 100
34 11 36
35 100 46
36 74 35
37 47 49
38 73 12
39 60 66
40 74 90
EOF
